50
20578

374 267
716 492
556 903
656 994
583 581
294 729
835 191
254 294
784 440
628 336
525 288
280 399
883 57
248 267
799 244
37 472
525 180
410 384
737 18
797 788
600 143
951 407
704 692
483 270
570 664
685 660
156 72
336 264
941 35
770 201
961 604
352 455
491 595
205 523
151 78
110 98
299 984
165 633
71 660
669 692
727 995
272 338
681 677
914 62
486 884
126 146
39 977
452 297
398 904
465 59
